Route #1: 40 1 12 3 28 25
Route #2: 15 33 43 31 27 35 20
Route #3: 9 26 24 39 14 36 2 17 5
Route #4: 18 11 23 10
Route #5: 7 29 16
Route #6: 32 4 8 30 42 22 38
Route #7: 19 13 41 37 34 21 6
Cost 909
Time 0.081789
